%SETS
JOBS     = 1..25;
MACHINES = 1..20;
SPEED    = 5;

time        = array3d(JOBS,MACHINES,1..SPEED,[41, 14, 10, 8, 7, 89, 30, 21, 18, 16, 9, 3, 2, 1, 1, 30, 10, 7, 6, 5, 54, 18, 13, 11, 9, 58, 20, 14, 11, 10, 2, 1, 1, 1, 1, 1, 1, 1, 1, 1, 4, 1, 1, 1, 1, 54, 18, 13, 11, 9, 2, 1, 1, 1, 1, 14, 4, 3, 2, 2, 81, 28, 20, 16, 14, 19, 6, 4, 4, 3, 30, 10, 7, 6, 5, 9, 3, 2, 1, 1, 30, 10, 7, 6, 5, 46, 16, 11, 9, 8, 1, 1, 1, 1, 1, 35, 12, 8, 7, 6, 116, 40, 28, 23, 20, 35, 12, 8, 7, 6, 8, 2, 2, 1, 1, 40, 13, 9, 8, 7, 2, 1, 1, 1, 1, 15, 5, 3, 3, 2, 61, 21, 15, 12, 11, 8, 3, 2, 1, 1, 8, 3, 2, 1, 1, 3, 1, 1, 1, 1, 1, 1, 1, 1, 1, 29, 10, 7, 5, 5, 6, 2, 1, 1, 1, 7, 2, 1, 1, 1, 17, 6, 4, 3, 3, 1, 1, 1, 1, 1, 22, 7, 5, 4, 3, 4, 1, 1, 1, 1, 23, 7, 5, 4, 4, 31, 10, 7, 6, 5, 2, 1, 1, 1, 1, 13, 4, 3, 2, 2, 30, 10, 7, 6, 5, 13, 4, 3, 2, 2, 1, 1, 1, 1, 1, 19, 6, 4, 4, 3, 28, 9, 6, 5, 5, 18, 6, 4, 3, 3, 74, 25, 18, 15, 13, 22, 7, 5, 4, 4, 60, 20, 14, 12, 10, 3, 1, 1, 1, 1, 3, 1, 1, 1, 1, 42, 14, 10, 8, 7, 13, 4, 3, 2, 2, 4, 1, 1, 1, 1, 67, 23, 16, 13, 12, 11, 3, 2, 2, 1, 35, 12, 8, 7, 6, 33, 11, 8, 6, 6, 55, 19, 13, 11, 10, 25, 8, 6, 5, 4, 35, 12, 8, 7, 6, 11, 3, 2, 2, 1, 8, 2, 1, 1, 1, 58, 20, 14, 11, 10, 14, 4, 3, 2, 2, 86, 29, 21, 17, 15, 28, 9, 6, 5, 5, 25, 8, 6, 5, 4, 3, 1, 1, 1, 1, 77, 26, 18, 15, 13, 15, 5, 3, 3, 2, 22, 7, 5, 4, 4, 13, 4, 3, 2, 2, 7, 2, 1, 1, 1, 60, 20, 14, 12, 10, 22, 7, 5, 4, 3, 1, 1, 1, 1, 1, 24, 8, 6, 5, 4, 10, 3, 2, 2, 1, 19, 6, 4, 3, 3, 56, 19, 13, 11, 10, 11, 3, 2, 2, 2, 61, 21, 15, 12, 11, 25, 8, 6, 5, 4, 1, 1, 1, 1, 1, 68, 23, 16, 13, 12, 30, 10, 7, 6, 5, 153, 52, 37, 31, 27, 4, 1, 1, 1, 1, 3, 1, 1, 1, 1, 69, 24, 17, 14, 12, 30, 10, 7, 6, 5, 1, 1, 1, 1, 1, 36, 12, 8, 7, 6, 36, 12, 8, 7, 6, 66, 22, 16, 13, 11, 32, 11, 7, 6, 5, 3, 1, 1, 1, 1, 1, 1, 1, 1, 1, 1, 1, 1, 1, 1, 1, 1, 1, 1, 1, 7, 2, 1, 1, 1, 50, 17, 12, 10, 9, 20, 6, 4, 4, 3, 20, 7, 5, 4, 3, 47, 16, 11, 9, 8, 3, 1, 1, 1, 1, 8, 2, 2, 1, 1, 22, 7, 5, 4, 4, 90, 31, 22, 18, 16, 21, 7, 5, 4, 3, 1, 1, 1, 1, 1, 41, 14, 10, 8, 7, 6, 2, 1, 1, 1, 42, 14, 10, 8, 7, 12, 4, 3, 2, 2, 51, 17, 12, 10, 9, 35, 12, 8, 7, 6, 21, 7, 5, 4, 3, 3, 1, 1, 1, 1, 1, 1, 1, 1, 1, 3, 1, 1, 1, 1, 1, 1, 1, 1, 1, 2, 1, 1, 1, 1, 6, 2, 1, 1, 1, 32, 11, 7, 6, 5, 21, 7, 5, 4, 3, 1, 1, 1, 1, 1, 1, 1, 1, 1, 1, 88, 30, 21, 18, 15, 21, 7, 5, 4, 3, 5, 2, 1, 1, 1, 7, 2, 1, 1, 1, 35, 12, 8, 7, 6, 5, 1, 1, 1, 1, 22, 7, 5, 4, 4, 90, 31, 22, 18, 16, 48, 16, 11, 9, 8, 7, 2, 1, 1, 1, 17, 6, 4, 3, 3, 25, 8, 6, 5, 4, 45, 15, 11, 9, 8, 4, 1, 1, 1, 1, 1, 1, 1, 1, 1, 1, 1, 1, 1, 1, 17, 5, 4, 3, 3, 24, 8, 5, 4, 4, 21, 7, 5, 4, 3, 9, 3, 2, 2, 1, 115, 39, 28, 23, 20, 22, 7, 5, 4, 4, 12, 4, 3, 2, 2, 20, 7, 5, 4, 3, 35, 12, 8, 7, 6, 28, 9, 7, 5, 5, 7, 2, 1, 1, 1, 1, 1, 1, 1, 1, 11, 4, 2, 2, 2, 25, 8, 6, 5, 4, 6, 2, 1, 1, 1, 36, 12, 8, 7, 6, 1, 1, 1, 1, 1, 7, 2, 1, 1, 1, 42, 14, 10, 8, 7, 5, 1, 1, 1, 1, 26, 9, 6, 5, 4, 19, 6, 4, 3, 3, 66, 23, 16, 13, 12, 7, 2, 1, 1, 1, 1, 1, 1, 1, 1, 34, 11, 8, 6, 6, 38, 13, 9, 7, 6, 61, 21, 15, 12, 11, 69, 24, 17, 14, 12, 1, 1, 1, 1, 1, 6, 2, 1, 1, 1, 24, 8, 6, 5, 4, 77, 26, 18, 15, 13, 77, 26, 19, 15, 13, 21, 7, 5, 4, 3, 63, 22, 15, 13, 11, 26, 9, 6, 5, 4, 12, 4, 3, 2, 2, 17, 5, 4, 3, 3, 23, 8, 5, 4, 4, 20, 7, 5, 4, 3, 67, 23, 16, 13, 12, 64, 22, 15, 13, 11, 12, 4, 3, 2, 2, 85, 29, 20, 17, 15, 4, 1, 1, 1, 1, 3, 1, 1, 1, 1, 3, 1, 1, 1, 1, 18, 6, 4, 3, 3, 1, 1, 1, 1, 1, 76, 26, 18, 15, 13, 45, 15, 11, 9, 8, 1, 1, 1, 1, 1, 5, 1, 1, 1, 1, 10, 3, 2, 2, 1, 3, 1, 1, 1, 1, 42, 14, 10, 8, 7, 10, 3, 2, 2, 1, 72, 25, 17, 14, 13, 22, 7, 5, 4, 4, 54, 18, 13, 11, 9, 48, 16, 11, 9, 8, 61, 21, 14, 12, 10, 15, 5, 3, 3, 2, 20, 7, 5, 4, 3, 41, 14, 10, 8, 7, 8, 3, 2, 1, 1, 17, 6, 4, 3, 3, 23, 8, 5, 4, 4, 1, 1, 1, 1, 1, 23, 8, 5, 4, 4, 14, 5, 3, 2, 2, 42, 14, 10, 8, 7, 9, 3, 2, 1, 1, 57, 19, 14, 11, 10, 22, 7, 5, 4, 4, 5, 1, 1, 1, 1, 40, 13, 9, 8, 7, 24, 8, 6, 4, 4, 1, 1, 1, 1, 1, 14, 4, 3, 2, 2, 29, 10, 7, 5, 5, 64, 22, 15, 13, 11, 1, 1, 1, 1, 1, 97, 33, 23, 19, 17, 12, 4, 2, 2, 2, 94, 32, 23, 19, 16, 24, 8, 5, 4, 4, 45, 15, 11, 9, 8, 22, 7, 5, 4, 3, 25, 8, 6, 5, 4, 8, 3, 2, 1, 1, 22, 7, 5, 4, 4, 35, 12, 8, 7, 6, 50, 17, 12, 10, 9, 36, 12, 8, 7, 6, 30, 10, 7, 6, 5, 51, 17, 12, 10, 9, 10, 3, 2, 2, 1, 28, 9, 7, 5, 5, 15, 5, 3, 3, 2, 12, 4, 3, 2, 2, 13, 4, 3, 2, 2, 13, 4, 3, 2, 2, 9, 3, 2, 2, 1, 25, 8, 6, 5, 4, 14, 5, 3, 2, 2, 94, 32, 23, 19, 16, 29, 10, 7, 5, 5, 5, 1, 1, 1, 1, 14, 4, 3, 2, 2, 10, 3, 2, 2, 1, 41, 14, 10, 8, 7, 54, 18, 13, 11, 9, 60, 20, 14, 12, 10, 28, 9, 6, 5, 5, 8, 2, 1, 1, 1, 7, 2, 1, 1, 1, 49, 17, 12, 10, 8, 19, 6, 4, 3, 3, 41, 14, 10, 8, 7, 21, 7, 5, 4, 3, 34, 11, 8, 6, 6, 18, 6, 4, 3, 3, 38, 13, 9, 7, 6, 21, 7, 5, 4, 3, 16, 5, 3, 3, 2, 10, 3, 2, 2, 1, 1, 1, 1, 1, 1, 12, 4, 3, 2, 2, 2, 1, 1, 1, 1, 105, 36, 25, 21, 18, 5, 1, 1, 1, 1, 43, 14, 10, 8, 7, 53, 18, 13, 10, 9, 30, 10, 7, 6, 5, 21, 7, 5, 4, 3, 4, 1, 1, 1, 1, 16, 5, 3, 3, 2, 10, 3, 2, 2, 1, 6, 2, 1, 1, 1, 23, 8, 5, 4, 4, 9, 3, 2, 1, 1, 64, 22, 15, 13, 11, 62, 21, 15, 12, 11, 7, 2, 1, 1, 1, 3, 1, 1, 1, 1, 5, 1, 1, 1, 1, 17, 6, 4, 3, 3, 33, 11, 8, 6, 6, 6, 2, 1, 1, 1, 7, 2, 1, 1, 1, 49, 17, 12, 10, 8, 13, 4, 3, 2, 2, 24, 8, 6, 5, 4, 6, 2, 1, 1, 1, 2, 1, 1, 1, 1, 18, 6, 4, 3, 3, 16, 5, 4, 3, 3, 4, 1, 1, 1, 1, 25, 8, 6, 5, 4, 20, 7, 4, 4, 3, 27, 9, 6, 5, 4, 4, 1, 1, 1, 1, 36, 12, 8, 7, 6, 6, 2, 1, 1, 1, 18, 6, 4, 3, 3, 39, 13, 9, 8, 7, 1, 1, 1, 1, 1, 10, 3, 2, 2, 1, 53, 18, 13, 10, 9, 48, 16, 11, 9, 8, 20, 6, 4, 4, 3, 52, 18, 12, 10, 9, 77, 26, 18, 15, 13, 45, 15, 11, 9, 8, 49, 17, 12, 10, 8, 2, 1, 1, 1, 1, 27, 9, 6, 5, 4, 31, 10, 7, 6, 5, 24, 8, 5, 4, 4, 41, 14, 10, 8, 7, 1, 1, 1, 1, 1, 38, 13, 9, 7, 6, 34, 11, 8, 6, 6, 7, 2, 1, 1, 1, 7, 2, 1, 1, 1, 25, 8, 6, 5, 4, 10, 3, 2, 2, 1, 41, 14, 10, 8, 7, 15, 5, 3, 3, 2, 39, 13, 9, 8, 7, 120, 41, 29, 24, 21, 9, 3, 2, 1, 1, 3, 1, 1, 1, 1, 59, 20, 14, 12, 10, 20, 6, 4, 4, 3, 95, 32, 23, 19, 17, 26, 9, 6, 5, 4, 132, 45, 32, 26, 23, 20, 7, 5, 4, 3, 19, 6, 4, 3, 3, 3, 1, 1, 1, 1, 11, 3, 2, 2, 2, 1, 1, 1, 1, 1, 4, 1, 1, 1, 1, 35, 12, 8, 7, 6, 1, 1, 1, 1, 1, 11, 4, 2, 2, 2, 51, 17, 12, 10, 9, 30, 10, 7, 6, 5, 30, 10, 7, 6, 5, 5, 1, 1, 1, 1, 15, 5, 3, 3, 2, 22, 7, 5, 4, 4, 118, 40, 29, 24, 21, 5, 2, 1, 1, 1, 7, 2, 1, 1, 1, 7, 2, 1, 1, 1, 35, 12, 8, 7, 6, 15, 5, 3, 3, 2, 1, 1, 1, 1, 1, 18, 6, 4, 3, 3, 6, 2, 1, 1, 1, 41, 14, 10, 8, 7, 9, 3, 2, 1, 1, 1, 1, 1, 1, 1, 23, 8, 5, 4, 4, 48, 16, 11, 9, 8, 12, 4, 3, 2, 2, 35, 12, 8, 7, 6, 18, 6, 4, 3, 3, 20, 6, 4, 4, 3, 82, 28, 20, 16, 14, 42, 14, 10, 8, 7, 1, 1, 1, 1, 1, 31, 11, 7, 6, 5, 16, 5, 3, 3, 2, 76, 26, 18, 15, 13, 6, 2, 1, 1, 1, 8, 2, 1, 1, 1, 2, 1, 1, 1, 1, 14, 5, 3, 2, 2, 2, 1, 1, 1, 1, 25, 8, 6, 5, 4, 42, 14, 10, 8, 7, 30, 10, 7, 6, 5, 37, 12, 9, 7, 6, 10, 3, 2, 2, 1, 48, 16, 11, 9, 8, 14, 5, 3, 2, 2, 44, 15, 11, 9, 8, 25, 8, 6, 5, 4, 4, 1, 1, 1, 1, 2, 1, 1, 1, 1, 1, 1, 1, 1, 1, 1, 1, 1, 1, 1, 15, 5, 3, 3, 2, 3, 1, 1, 1, 1, 1, 1, 1, 1, 1, 36, 12, 8, 7, 6, 12, 4, 3, 2, 2, 35, 12, 8, 7, 6, 15, 5, 3, 3, 2, 15, 5, 3, 3, 2, 16, 5, 4, 3, 3, 16, 5, 4, 3, 2, 42, 14, 10, 8, 7, 13, 4, 3, 2, 2, 60, 21, 14, 12, 10, 1, 1, 1, 1, 1, 38, 13, 9, 7, 6, 3, 1, 1, 1, 1, 24, 8, 6, 5, 4, 1, 1, 1, 1, 1, 20, 6, 4, 4, 3, 1, 1, 1, 1, 1, 78, 26, 19, 15, 14, 61, 21, 14, 12, 10, 41, 14, 10, 8, 7, 63, 22, 15, 12, 11, 4, 1, 1, 1, 1, 4, 1, 1, 1, 1, 5, 1, 1, 1, 1, 25, 8, 6, 5, 4, 61, 21, 14, 12, 11, 119, 41, 29, 24, 21, 32, 11, 7, 6, 5, 34, 11, 8, 6, 6, 62, 21, 15, 12, 11, 13, 4, 3, 2, 2, 7, 2, 1, 1, 1, 4, 1, 1, 1, 1, 3, 1, 1, 1, 1, 43, 14, 10, 8, 7, 4, 1, 1, 1, 1, 7, 2, 1, 1, 1, 44, 15, 10, 9, 7, 9, 3, 2, 1, 1, 104, 36, 25, 21, 18, 8, 2, 1, 1, 1, 19, 6, 4, 4, 3, 9, 3, 2, 1, 1, 62, 21, 15, 12, 11, 11, 4, 2, 2, 2, 14, 5, 3, 2, 2, 18, 6, 4, 3, 3, 72, 24, 17, 14, 13, 1, 1, 1, 1, 1, 32, 11, 7, 6, 5, 57, 19, 14, 11, 10, 1, 1, 1, 1, 1, 19, 6, 4, 3, 3, 10, 3, 2, 2, 1, 50, 17, 12, 10, 9, 21, 7, 5, 4, 3, 30, 10, 7, 6, 5, 15, 5, 3, 3, 2, 25, 8, 6, 5, 4, 8, 3, 2, 1, 1, 1, 1, 1, 1, 1, 22, 7, 5, 4, 4, 9, 3, 2, 1, 1, 18, 6, 4, 3, 3, 64, 22, 15, 13, 11, 14, 4, 3, 2, 2, 7, 2, 1, 1, 1, 12, 4, 2, 2, 2, 69, 24, 17, 14, 12, 71, 24, 17, 14, 12, 48, 16, 11, 9, 8, 65, 22, 16, 13, 11, 6, 2, 1, 1, 1, 2, 1, 1, 1, 1, 6, 2, 1, 1, 1, 9, 3, 2, 1, 1, 4, 1, 1, 1, 1, 24, 8, 5, 4, 4, 13, 4, 3, 2, 2, 43, 15, 10, 8, 7, 5, 1, 1, 1, 1, 31, 10, 7, 6, 5, 7, 2, 1, 1, 1, 22, 7, 5, 4, 3, 11, 3, 2, 2, 1, 1, 1, 1, 1, 1, 6, 2, 1, 1, 1, 28, 9, 6, 5, 5, 17, 6, 4, 3, 3, 18, 6, 4, 3, 3, 4, 1, 1, 1, 1, 21, 7, 5, 4, 3, 148, 51, 36, 30, 26]);
energy      = array3d(JOBS,MACHINES,1..SPEED,[66, 86, 90, 92, 93, 41, 74, 81, 83, 85, 91, 97, 98, 99, 99, 74, 90, 93, 94, 95, 58, 83, 87, 89, 91, 55, 81, 86, 89, 90, 98, 99, 99, 99, 99, 99, 99, 99, 99, 99, 96, 99, 99, 99, 99, 58, 83, 87, 89, 91, 98, 99, 99, 99, 99, 86, 96, 97, 98, 98, 44, 75, 81, 85, 86, 82, 94, 96, 96, 97, 74, 90, 93, 94, 95, 91, 97, 98, 99, 99, 74, 90, 93, 94, 95, 63, 85, 89, 91, 92, 99, 99, 99, 99, 99, 70, 88, 92, 93, 94, 31, 67, 75, 79, 81, 70, 88, 92, 93, 94, 92, 98, 98, 99, 99, 67, 87, 91, 92, 93, 98, 99, 99, 99, 99, 86, 95, 97, 97, 98, 54, 81, 86, 88, 89, 92, 97, 98, 99, 99, 92, 97, 98, 99, 99, 97, 99, 99, 99, 99, 99, 99, 99, 99, 99, 74, 90, 93, 95, 95, 94, 98, 99, 99, 99, 93, 98, 99, 99, 99, 84, 94, 96, 97, 97, 99, 99, 99, 99, 99, 80, 93, 95, 96, 97, 96, 99, 99, 99, 99, 79, 93, 95, 96, 96, 73, 90, 93, 94, 95, 98, 99, 99, 99, 99, 87, 96, 97, 98, 98, 74, 90, 93, 94, 95, 87, 96, 97, 98, 98, 99, 99, 99, 99, 99, 82, 94, 96, 96, 97, 75, 91, 94, 95, 95, 83, 94, 96, 97, 97, 47, 77, 83, 86, 87, 80, 93, 95, 96, 96, 54, 81, 86, 88, 90, 97, 99, 99, 99, 99, 97, 99, 99, 99, 99, 65, 86, 90, 92, 93, 87, 96, 97, 98, 98, 96, 99, 99, 99, 99, 51, 79, 85, 87, 88, 89, 97, 98, 98, 99, 70, 88, 92, 93, 94, 71, 89, 92, 94, 94, 57, 82, 87, 89, 90, 77, 92, 94, 95, 96, 70, 88, 92, 93, 94, 89, 97, 98, 98, 99, 92, 98, 99, 99, 99, 55, 81, 86, 89, 90, 86, 96, 97, 98, 98, 42, 74, 81, 84, 86, 75, 91, 94, 95, 95, 77, 92, 94, 95, 96, 97, 99, 99, 99, 99, 46, 77, 83, 86, 87, 86, 95, 97, 97, 98, 80, 93, 95, 96, 96, 87, 96, 97, 98, 98, 93, 98, 99, 99, 99, 54, 81, 86, 88, 90, 80, 93, 95, 96, 97, 99, 99, 99, 99, 99, 78, 92, 94, 95, 96, 90, 97, 98, 98, 99, 82, 94, 96, 97, 97, 57, 82, 87, 89, 90, 89, 97, 98, 98, 98, 54, 81, 86, 88, 89, 77, 92, 94, 95, 96, 99, 99, 99, 99, 99, 50, 79, 85, 87, 88, 74, 90, 93, 94, 95, 21, 59, 69, 73, 76, 96, 99, 99, 99, 99, 97, 99, 99, 99, 99, 50, 78, 84, 86, 88, 74, 90, 93, 94, 95, 99, 99, 99, 99, 99, 69, 88, 92, 93, 94, 69, 88, 92, 93, 94, 51, 80, 85, 87, 89, 72, 89, 93, 94, 95, 97, 99, 99, 99, 99, 99, 99, 99, 99, 99, 99, 99, 99, 99, 99, 99, 99, 99, 99, 99, 93, 98, 99, 99, 99, 60, 84, 88, 90, 91, 81, 94, 96, 96, 97, 81, 93, 95, 96, 97, 62, 85, 89, 91, 92, 97, 99, 99, 99, 99, 92, 98, 98, 99, 99, 80, 93, 95, 96, 96, 40, 73, 80, 83, 85, 81, 93, 95, 96, 97, 99, 99, 99, 99, 99, 66, 86, 90, 92, 93, 94, 98, 99, 99, 99, 65, 86, 90, 92, 93, 88, 96, 97, 98, 98, 60, 84, 88, 90, 91, 70, 88, 92, 93, 94, 81, 93, 95, 96, 97, 97, 99, 99, 99, 99, 99, 99, 99, 99, 99, 97, 99, 99, 99, 99, 99, 99, 99, 99, 99, 98, 99, 99, 99, 99, 94, 98, 99, 99, 99, 72, 89, 93, 94, 95, 81, 93, 95, 96, 97, 99, 99, 99, 99, 99, 99, 99, 99, 99, 99, 41, 74, 81, 83, 86, 81, 93, 95, 96, 97, 95, 98, 99, 99, 99, 93, 98, 99, 99, 99, 70, 88, 92, 93, 94, 95, 99, 99, 99, 99, 80, 93, 95, 96, 96, 40, 73, 80, 83, 85, 61, 85, 89, 91, 92, 93, 98, 99, 99, 99, 84, 94, 96, 97, 97, 77, 92, 94, 95, 96, 63, 86, 89, 91, 92, 96, 99, 99, 99, 99, 99, 99, 99, 99, 99, 99, 99, 99, 99, 99, 84, 95, 96, 97, 97, 78, 92, 95, 96, 96, 81, 93, 95, 96, 97, 91, 97, 98, 98, 99, 31, 67, 75, 79, 81, 80, 93, 95, 96, 96, 88, 96, 97, 98, 98, 81, 93, 95, 96, 97, 70, 88, 92, 93, 94, 75, 91, 93, 95, 95, 93, 98, 99, 99, 99, 99, 99, 99, 99, 99, 89, 96, 98, 98, 98, 77, 92, 94, 95, 96, 94, 98, 99, 99, 99, 69, 88, 92, 93, 94, 99, 99, 99, 99, 99, 93, 98, 99, 99, 99, 65, 86, 90, 92, 93, 95, 99, 99, 99, 99, 77, 91, 94, 95, 96, 82, 94, 96, 97, 97, 51, 79, 85, 87, 88, 93, 98, 99, 99, 99, 99, 99, 99, 99, 99, 71, 89, 92, 94, 94, 68, 87, 91, 93, 94, 54, 81, 86, 88, 89, 50, 78, 84, 86, 88, 99, 99, 99, 99, 99, 94, 98, 99, 99, 99, 78, 92, 94, 95, 96, 46, 77, 83, 86, 87, 46, 77, 82, 86, 87, 81, 93, 95, 96, 97, 53, 80, 86, 87, 89, 77, 91, 94, 95, 96, 88, 96, 97, 98, 98, 84, 95, 96, 97, 97, 79, 92, 95, 96, 96, 81, 93, 95, 96, 97, 51, 79, 85, 87, 88, 52, 80, 86, 87, 89, 88, 96, 97, 98, 98, 42, 74, 81, 84, 86, 96, 99, 99, 99, 99, 97, 99, 99, 99, 99, 97, 99, 99, 99, 99, 83, 94, 96, 97, 97, 99, 99, 99, 99, 99, 46, 77, 83, 86, 87, 63, 86, 89, 91, 92, 99, 99, 99, 99, 99, 95, 99, 99, 99, 99, 90, 97, 98, 98, 99, 97, 99, 99, 99, 99, 65, 86, 90, 92, 93, 90, 97, 98, 98, 99, 48, 77, 84, 86, 87, 80, 93, 95, 96, 96, 58, 83, 87, 89, 91, 61, 85, 89, 91, 92, 54, 81, 86, 88, 90, 86, 95, 97, 97, 98, 81, 93, 95, 96, 97, 66, 86, 90, 92, 93, 92, 97, 98, 99, 99, 84, 94, 96, 97, 97, 79, 92, 95, 96, 96, 99, 99, 99, 99, 99, 79, 92, 95, 96, 96, 86, 95, 97, 98, 98, 65, 86, 90, 92, 93, 91, 97, 98, 99, 99, 56, 82, 86, 89, 90, 80, 93, 95, 96, 96, 95, 99, 99, 99, 99, 67, 87, 91, 92, 93, 78, 92, 94, 96, 96, 99, 99, 99, 99, 99, 86, 96, 97, 98, 98, 74, 90, 93, 95, 95, 52, 80, 86, 87, 89, 99, 99, 99, 99, 99, 37, 71, 79, 82, 84, 88, 96, 98, 98, 98, 39, 72, 79, 82, 85, 78, 92, 95, 96, 96, 63, 86, 89, 91, 92, 80, 93, 95, 96, 97, 77, 92, 94, 95, 96, 92, 97, 98, 99, 99, 80, 93, 95, 96, 96, 70, 88, 92, 93, 94, 60, 84, 88, 90, 91, 69, 88, 92, 93, 94, 74, 90, 93, 94, 95, 60, 84, 88, 90, 91, 90, 97, 98, 98, 99, 75, 91, 93, 95, 95, 86, 95, 97, 97, 98, 88, 96, 97, 98, 98, 87, 96, 97, 98, 98, 87, 96, 97, 98, 98, 91, 97, 98, 98, 99, 77, 92, 94, 95, 96, 86, 95, 97, 98, 98, 39, 72, 79, 82, 85, 74, 90, 93, 95, 95, 95, 99, 99, 99, 99, 86, 96, 97, 98, 98, 90, 97, 98, 98, 99, 66, 86, 90, 92, 93, 58, 83, 87, 89, 91, 54, 81, 86, 88, 90, 75, 91, 94, 95, 95, 92, 98, 99, 99, 99, 93, 98, 99, 99, 99, 61, 84, 88, 90, 92, 82, 94, 96, 97, 97, 66, 86, 90, 92, 93, 81, 93, 95, 96, 97, 71, 89, 92, 94, 94, 83, 94, 96, 97, 97, 68, 87, 91, 93, 94, 81, 93, 95, 96, 97, 85, 95, 97, 97, 98, 90, 97, 98, 98, 99, 99, 99, 99, 99, 99, 88, 96, 97, 98, 98, 98, 99, 99, 99, 99, 34, 69, 77, 81, 83, 95, 99, 99, 99, 99, 65, 86, 90, 92, 93, 58, 83, 87, 90, 91, 74, 90, 93, 94, 95, 81, 93, 95, 96, 97, 96, 99, 99, 99, 99, 85, 95, 97, 97, 98, 90, 97, 98, 98, 99, 94, 98, 99, 99, 99, 79, 92, 95, 96, 96, 91, 97, 98, 99, 99, 52, 80, 86, 87, 89, 53, 81, 86, 88, 89, 93, 98, 99, 99, 99, 97, 99, 99, 99, 99, 95, 99, 99, 99, 99, 84, 94, 96, 97, 97, 71, 89, 92, 94, 94, 94, 98, 99, 99, 99, 93, 98, 99, 99, 99, 61, 84, 88, 90, 92, 87, 96, 97, 98, 98, 78, 92, 94, 95, 96, 94, 98, 99, 99, 99, 98, 99, 99, 99, 99, 83, 94, 96, 97, 97, 85, 95, 96, 97, 97, 96, 99, 99, 99, 99, 77, 92, 94, 95, 96, 81, 93, 96, 96, 97, 76, 91, 94, 95, 96, 96, 99, 99, 99, 99, 69, 88, 92, 93, 94, 94, 98, 99, 99, 99, 83, 94, 96, 97, 97, 67, 87, 91, 92, 93, 99, 99, 99, 99, 99, 90, 97, 98, 98, 99, 58, 83, 87, 90, 91, 61, 85, 89, 91, 92, 81, 94, 96, 96, 97, 59, 83, 88, 90, 91, 46, 77, 83, 86, 87, 63, 86, 89, 91, 92, 61, 84, 88, 90, 92, 98, 99, 99, 99, 99, 76, 91, 94, 95, 96, 73, 90, 93, 94, 95, 78, 92, 95, 96, 96, 66, 86, 90, 92, 93, 99, 99, 99, 99, 99, 68, 87, 91, 93, 94, 71, 89, 92, 94, 94, 93, 98, 99, 99, 99, 93, 98, 99, 99, 99, 77, 92, 94, 95, 96, 90, 97, 98, 98, 99, 66, 86, 90, 92, 93, 86, 95, 97, 97, 98, 67, 87, 91, 92, 93, 30, 66, 74, 78, 81, 91, 97, 98, 99, 99, 97, 99, 99, 99, 99, 55, 81, 86, 88, 90, 81, 94, 96, 96, 97, 38, 72, 79, 82, 84, 77, 91, 94, 95, 96, 26, 63, 72, 77, 79, 81, 93, 95, 96, 97, 82, 94, 96, 97, 97, 97, 99, 99, 99, 99, 89, 97, 98, 98, 98, 99, 99, 99, 99, 99, 96, 99, 99, 99, 99, 70, 88, 92, 93, 94, 99, 99, 99, 99, 99, 89, 96, 98, 98, 98, 60, 84, 88, 90, 91, 74, 90, 93, 94, 95, 74, 90, 93, 94, 95, 95, 99, 99, 99, 99, 86, 95, 97, 97, 98, 80, 93, 95, 96, 96, 30, 67, 74, 78, 81, 95, 98, 99, 99, 99, 93, 98, 99, 99, 99, 93, 98, 99, 99, 99, 70, 88, 92, 93, 94, 86, 95, 97, 97, 98, 99, 99, 99, 99, 99, 83, 94, 96, 97, 97, 94, 98, 99, 99, 99, 66, 86, 90, 92, 93, 91, 97, 98, 99, 99, 99, 99, 99, 99, 99, 79, 92, 95, 96, 96, 61, 85, 89, 91, 92, 88, 96, 97, 98, 98, 70, 88, 92, 93, 94, 83, 94, 96, 97, 97, 81, 94, 96, 96, 97, 44, 75, 81, 85, 86, 65, 86, 90, 92, 93, 99, 99, 99, 99, 99, 73, 89, 93, 94, 95, 85, 95, 97, 97, 98, 46, 77, 83, 86, 87, 94, 98, 99, 99, 99, 92, 98, 99, 99, 99, 98, 99, 99, 99, 99, 86, 95, 97, 98, 98, 98, 99, 99, 99, 99, 77, 92, 94, 95, 96, 65, 86, 90, 92, 93, 74, 90, 93, 94, 95, 69, 88, 91, 93, 94, 90, 97, 98, 98, 99, 61, 85, 89, 91, 92, 86, 95, 97, 98, 98, 64, 86, 89, 91, 92, 77, 92, 94, 95, 96, 96, 99, 99, 99, 99, 98, 99, 99, 99, 99, 99, 99, 99, 99, 99, 99, 99, 99, 99, 99, 86, 95, 97, 97, 98, 97, 99, 99, 99, 99, 99, 99, 99, 99, 99, 69, 88, 92, 93, 94, 88, 96, 97, 98, 98, 70, 88, 92, 93, 94, 86, 95, 97, 97, 98, 86, 95, 97, 97, 98, 85, 95, 96, 97, 97, 85, 95, 96, 97, 98, 65, 86, 90, 92, 93, 87, 96, 97, 98, 98, 54, 81, 86, 88, 90, 99, 99, 99, 99, 99, 68, 87, 91, 93, 94, 97, 99, 99, 99, 99, 78, 92, 94, 95, 96, 99, 99, 99, 99, 99, 81, 94, 96, 96, 97, 99, 99, 99, 99, 99, 45, 77, 82, 86, 86, 54, 81, 86, 88, 90, 66, 86, 90, 92, 93, 53, 80, 86, 88, 89, 96, 99, 99, 99, 99, 96, 99, 99, 99, 99, 95, 99, 99, 99, 99, 77, 92, 94, 95, 96, 54, 81, 86, 88, 89, 30, 66, 74, 78, 81, 72, 89, 93, 94, 95, 71, 89, 92, 94, 94, 53, 81, 86, 88, 89, 87, 96, 97, 98, 98, 93, 98, 99, 99, 99, 96, 99, 99, 99, 99, 97, 99, 99, 99, 99, 65, 86, 90, 92, 93, 96, 99, 99, 99, 99, 93, 98, 99, 99, 99, 64, 86, 90, 91, 93, 91, 97, 98, 99, 99, 35, 69, 77, 81, 83, 92, 98, 99, 99, 99, 82, 94, 96, 96, 97, 91, 97, 98, 99, 99, 53, 81, 86, 88, 89, 89, 96, 98, 98, 98, 86, 95, 97, 98, 98, 83, 94, 96, 97, 97, 48, 78, 84, 86, 87, 99, 99, 99, 99, 99, 72, 89, 93, 94, 95, 56, 82, 86, 89, 90, 99, 99, 99, 99, 99, 82, 94, 96, 97, 97, 90, 97, 98, 98, 99, 60, 84, 88, 90, 91, 81, 93, 95, 96, 97, 74, 90, 93, 94, 95, 86, 95, 97, 97, 98, 77, 92, 94, 95, 96, 92, 97, 98, 99, 99, 99, 99, 99, 99, 99, 80, 93, 95, 96, 96, 91, 97, 98, 99, 99, 83, 94, 96, 97, 97, 52, 80, 86, 87, 89, 86, 96, 97, 98, 98, 93, 98, 99, 99, 99, 88, 96, 98, 98, 98, 50, 78, 84, 86, 88, 49, 78, 84, 86, 88, 61, 85, 89, 91, 92, 52, 80, 85, 87, 89, 94, 98, 99, 99, 99, 98, 99, 99, 99, 99, 94, 98, 99, 99, 99, 91, 97, 98, 99, 99, 96, 99, 99, 99, 99, 78, 92, 95, 96, 96, 87, 96, 97, 98, 98, 65, 86, 90, 92, 93, 95, 99, 99, 99, 99, 73, 90, 93, 94, 95, 93, 98, 99, 99, 99, 80, 93, 95, 96, 97, 89, 97, 98, 98, 99, 99, 99, 99, 99, 99, 94, 98, 99, 99, 99, 75, 91, 94, 95, 95, 84, 94, 96, 97, 97, 83, 94, 96, 97, 97, 96, 99, 99, 99, 99, 81, 93, 95, 96, 97, 22, 60, 69, 74, 77]);
precedence  = array2d(JOBS,MACHINES,[8, 13, 3, 19, 6, 14, 4, 10, 5, 17, 9, 7, 18, 2, 1, 11, 0, 15, 12, 16, 16, 17, 11, 5, 0, 14, 3, 13, 2, 1, 4, 10, 9, 6, 18, 8, 12, 7, 15, 19, 0, 4, 9, 12, 5, 16, 1, 8, 18, 10, 17, 19, 2, 11, 3, 15, 13, 14, 6, 7, 5, 18, 6, 19, 14, 10, 15, 8, 16, 11, 2, 1, 12, 17, 9, 13, 4, 3, 0, 7, 8, 2, 16, 14, 9, 19, 10, 4, 6, 17, 0, 1, 3, 13, 5, 7, 15, 11, 18, 12, 6, 0, 9, 16, 13, 11, 2, 3, 19, 10, 17, 12, 4, 15, 14, 8, 7, 5, 18, 1, 3, 17, 2, 15, 19, 4, 18, 11, 9, 16, 8, 5, 10, 7, 14, 12, 6, 0, 1, 13, 2, 13, 12, 4, 8, 19, 16, 11, 17, 6, 0, 15, 5, 18, 7, 9, 10, 3, 1, 14, 6, 1, 18, 17, 15, 12, 19, 4, 0, 9, 16, 2, 14, 7, 3, 5, 8, 13, 11, 10, 19, 18, 13, 12, 2, 14, 8, 9, 17, 4, 15, 3, 10, 6, 16, 11, 1, 5, 0, 7, 11, 10, 14, 18, 15, 2, 6, 5, 8, 17, 3, 0, 13, 1, 16, 19, 9, 12, 7, 4, 3, 2, 7, 0, 15, 12, 16, 13, 5, 18, 1, 14, 11, 9, 17, 10, 4, 6, 8, 19, 4, 19, 14, 6, 11, 0, 9, 10, 1, 5, 15, 18, 17, 13, 3, 16, 2, 7, 8, 12, 4, 2, 19, 5, 18, 1, 0, 7, 6, 3, 9, 8, 11, 16, 14, 13, 17, 12, 15, 10, 17, 9, 19, 0, 10, 13, 5, 15, 12, 1, 8, 4, 16, 14, 2, 18, 6, 11, 3, 7, 19, 3, 7, 17, 16, 1, 6, 10, 12, 4, 14, 9, 11, 0, 18, 2, 15, 8, 5, 13, 4, 8, 17, 15, 5, 6, 11, 1, 7, 14, 10, 3, 9, 13, 2, 19, 12, 16, 0, 18, 2, 18, 15, 16, 7, 11, 12, 3, 13, 9, 10, 6, 1, 5, 17, 4, 0, 19, 14, 8, 10, 8, 0, 1, 14, 3, 2, 16, 12, 15, 13, 4, 19, 17, 9, 5, 11, 18, 6, 7, 18, 1, 11, 0, 7, 9, 17, 14, 12, 4, 19, 5, 10, 6, 3, 15, 13, 2, 8, 16, 5, 13, 19, 18, 9, 2, 10, 6, 15, 11, 16, 14, 7, 1, 12, 4, 3, 0, 8, 17, 14, 7, 8, 18, 5, 12, 6, 17, 9, 0, 2, 11, 19, 15, 16, 3, 1, 4, 13, 10, 11, 4, 3, 14, 15, 17, 6, 13, 7, 10, 16, 19, 2, 18, 0, 5, 1, 12, 9, 8, 7, 9, 13, 0, 10, 3, 11, 16, 2, 12, 5, 4, 19, 15, 18, 1, 8, 6, 17, 14, 6, 7, 10, 0, 5, 4, 13, 3, 12, 11, 19, 16, 1, 9, 15, 2, 17, 8, 18, 14]);
releaseDate = array2d(JOBS,MACHINES,[84, 100, 55, 224, 59, 132, 57, 95, 58, 185, 94, 79, 204, 50, 39, 96, 30, 154, 99, 168, 120, 183, 102, 73, 50, 111, 54, 109, 52, 51, 72, 95, 94, 90, 195, 93, 104, 91, 115, 201, 90, 103, 133, 165, 106, 199, 91, 128, 220, 144, 206, 254, 98, 151, 99, 198, 168, 194, 107, 120, 69, 208, 98, 215, 175, 147, 176, 114, 179, 163, 32, 1, 170, 197, 144, 174, 47, 33, 0, 106, 100, 32, 160, 147, 102, 238, 120, 53, 79, 192, 30, 31, 36, 140, 78, 90, 149, 122, 229, 139, 114, 60, 126, 206, 176, 130, 78, 85, 237, 128, 208, 134, 104, 205, 189, 125, 115, 110, 215, 61, 89, 175, 88, 172, 177, 94, 176, 141, 129, 173, 128, 95, 136, 126, 171, 152, 124, 50, 55, 160, 13, 81, 70, 15, 46, 145, 131, 65, 133, 34, 10, 91, 28, 139, 41, 47, 56, 14, 12, 89, 157, 105, 254, 251, 249, 224, 273, 126, 100, 177, 250, 106, 235, 163, 107, 134, 176, 234, 216, 194, 209, 203, 137, 129, 27, 171, 109, 115, 186, 64, 175, 34, 122, 107, 185, 123, 24, 80, 10, 108, 169, 167, 188, 221, 190, 88, 139, 123, 153, 202, 108, 80, 177, 85, 192, 233, 166, 171, 145, 111, 56, 42, 88, 40, 196, 158, 206, 165, 65, 212, 41, 168, 154, 95, 207, 133, 58, 76, 93, 237, 121, 236, 205, 134, 170, 70, 156, 165, 72, 131, 214, 234, 228, 200, 76, 219, 75, 141, 148, 189, 48, 21, 152, 63, 151, 7, 0, 72, 64, 35, 95, 85, 102, 145, 117, 116, 148, 114, 119, 101, 147, 102, 163, 10, 134, 141, 39, 145, 136, 16, 75, 20, 146, 144, 18, 157, 41, 135, 19, 57, 180, 81, 110, 166, 159, 76, 109, 137, 146, 92, 155, 128, 144, 70, 168, 80, 157, 111, 98, 151, 57, 94, 177, 157, 71, 72, 135, 19, 80, 156, 113, 36, 112, 155, 28, 249, 144, 171, 10, 192, 79, 302, 269, 296, 105, 165, 171, 81, 257, 159, 161, 104, 78, 89, 301, 87, 50, 303, 261, 158, 150, 129, 40, 82, 162, 94, 83, 167, 160, 163, 161, 95, 180, 170, 141, 106, 157, 171, 120, 124, 257, 114, 226, 100, 175, 194, 256, 240, 227, 150, 298, 155, 213, 162, 138, 241, 229, 133, 180, 243, 78, 157, 173, 172, 116, 56, 119, 79, 161, 120, 167, 158, 96, 51, 129, 75, 57, 50, 100, 171, 153, 123, 124, 255, 90, 136, 111, 211, 128, 60, 76, 130, 256, 163, 203, 77, 61, 87, 152, 129, 207, 130, 129, 233, 234, 267, 162, 232, 192, 205, 246, 276, 126, 272, 100, 160, 119, 208, 204, 199, 113, 134, 157, 20, 148, 57, 152, 174, 50, 154, 88, 64, 198, 172, 196, 28, 117, 96, 175, 171, 75, 76, 79, 50, 67, 64, 91, 63, 82, 81, 204, 188, 51, 78, 181, 52, 191, 77, 196, 102]);
dueDate     = array2d(JOBS,MACHINES,[94, 132, 57, 233, 79, 154, 58, 96, 59, 204, 95, 84, 224, 55, 50, 99, 39, 168, 100, 185, 183, 195, 104, 90, 51, 115, 72, 111, 54, 52, 73, 102, 95, 91, 201, 94, 109, 93, 120, 208, 91, 106, 144, 168, 107, 206, 98, 133, 254, 151, 220, 255, 99, 165, 103, 199, 194, 198, 120, 128, 98, 215, 106, 218, 176, 163, 179, 144, 197, 170, 33, 32, 174, 208, 147, 175, 69, 47, 1, 114, 102, 36, 192, 149, 120, 244, 122, 78, 90, 229, 31, 32, 53, 147, 79, 100, 160, 139, 238, 140, 115, 61, 128, 208, 189, 134, 85, 104, 238, 130, 215, 176, 110, 206, 205, 126, 125, 114, 237, 78, 94, 176, 89, 173, 178, 95, 177, 152, 136, 175, 129, 124, 141, 128, 172, 160, 126, 55, 88, 171, 14, 89, 81, 28, 47, 146, 133, 70, 139, 41, 12, 131, 34, 145, 46, 56, 65, 15, 13, 91, 163, 106, 273, 254, 250, 234, 274, 134, 105, 194, 251, 107, 249, 176, 126, 157, 177, 235, 224, 216, 229, 209, 171, 137, 34, 175, 115, 122, 203, 80, 185, 64, 123, 108, 186, 129, 27, 107, 24, 109, 171, 169, 190, 233, 192, 108, 145, 139, 166, 221, 111, 85, 188, 88, 202, 251, 167, 177, 153, 123, 58, 56, 93, 41, 206, 165, 207, 168, 76, 237, 42, 196, 158, 133, 212, 154, 65, 88, 95, 251, 131, 248, 214, 141, 189, 72, 165, 170, 75, 134, 219, 236, 234, 205, 121, 228, 76, 148, 156, 200, 63, 35, 161, 64, 152, 21, 7, 85, 72, 48, 101, 95, 114, 148, 119, 117, 151, 116, 145, 102, 157, 134, 176, 16, 135, 144, 41, 146, 141, 18, 102, 39, 147, 145, 19, 163, 57, 136, 20, 75, 184, 92, 111, 168, 166, 80, 110, 144, 151, 98, 157, 137, 146, 76, 180, 81, 159, 128, 109, 155, 71, 112, 192, 171, 72, 80, 144, 28, 94, 157, 135, 57, 113, 156, 36, 251, 155, 177, 19, 249, 81, 303, 296, 301, 158, 171, 257, 87, 261, 161, 165, 105, 79, 104, 302, 89, 78, 312, 269, 159, 157, 141, 82, 83, 163, 95, 94, 170, 161, 167, 162, 106, 182, 171, 150, 120, 160, 180, 124, 129, 298, 133, 227, 114, 180, 213, 257, 241, 229, 155, 299, 162, 226, 175, 150, 243, 240, 138, 194, 256, 79, 158, 174, 173, 119, 57, 120, 96, 167, 129, 171, 161, 100, 56, 157, 78, 75, 51, 116, 172, 163, 124, 128, 256, 111, 152, 123, 255, 129, 61, 77, 136, 278, 203, 211, 87, 76, 90, 153, 130, 208, 160, 130, 234, 246, 272, 192, 233, 199, 207, 267, 278, 129, 276, 119, 162, 126, 232, 205, 204, 117, 148, 171, 28, 152, 64, 154, 175, 57, 157, 96, 88, 201, 174, 198, 50, 134, 113, 196, 172, 76, 77, 81, 51, 75, 67, 102, 64, 91, 82, 213, 191, 52, 79, 188, 63, 196, 78, 204, 181]);